(set-logic HORN)
(declare-fun inv ((_ BitVec 32) (_ BitVec 32) ) Bool)
(assert (forall ((x (_ BitVec 32)) (y (_ BitVec 32))) 
       (=> ( = x (_ bv1 32) ) (inv x y))))
(assert (forall ((x (_ BitVec 32)) (y (_ BitVec 32)) (x! (_ BitVec 32)) (y! (_ BitVec 32))) 
       (=> (and (inv x y) ( and ( bvsle x (_ bv10 32) ) ( = y! ( bvsub (_ bv10 32) x ) ) ( = x! ( bvadd x (_ bv1 32) ) ) )) (inv x! y!))))
(assert (forall ((x (_ BitVec 32)) (y (_ BitVec 32))) 
       (=> (inv x y) ( not ( and ( bvsle x (_ bv10 32) ) ( = y ( bvsub (_ bv10 32) x ) ) ( or ( bvsge y (_ bv10 32) ) ( bvsgt (_ bv0 32) y ) ) ) ))))
(check-sat)
